N = 10;
H = 5;
T = 2;

avail = array3d(1..N, 1..H, 1..T, [6, 2, 0, 4, 8, 3, 8, 4, 6, 1, 8, 3, 10, 6, 8, 0, 10, 3, 6, 8, 7, 1, 5, 7, 6, 8, 10, 9, 4, 7, 7, 6, 1, 8, 7, 0, 8, 5, 10, 6, 5, 7, 2, 9, 3, 3, 4, 5, 5, 6, 1, 6, 3, 9, 3, 7, 2, 5, 3, 7, 2, 4, 6, 0, 3, 5, 10, 7, 1, 5, 0, 8, 8, 8, 9, 1, 8, 7, 4, 1, 1, 0, 4, 5, 9, 1, 1, 6, 6, 10, 1, 10, 8, 6, 2, 1, 6, 7, 9, 3]);

r = array2d(1..H, 1..T, [3, 5, 2, 2, 2, 2, 4, 4, 3, 1]);
